<number of tasks>
20

<cycle time>
1000

<order strength>
0,516


<task times>
1 58
2 93
3 176
4 175
5 133
6 36
7 122
8 151
9 27
10 140
11 182
12 189
13 187
14 66
15 104
16 133
17 268
18 220
19 202
20 60

<precedence relations>
1,5
2,4
3,5
3,7
4,6
4,7
4,9
5,6
5,8
5,15
7,10
8,13
8,14
9,11
9,12
9,13
10,15
11,14
11,15
12,14
13,16
14,17
14,20
15,19
16,18

<end>
